
;this file is automatically generated: Tue Oct 27 10:34:59 CST 2020

;declarations generated

(declare-fun oclExcludes ( Int Int) Bool)
(declare-fun type_a4d0bfd9_92ad_4dd1_b530_6ff1023e49bd_Class15 ( Int) Bool)
(declare-fun Cardinality ( Int) Int)
(declare-fun oclSelect ( Int Bool) Int)
(declare-fun class15_Class15BoolAttr1 ( Int) Bool)
(declare-fun class15_Class15BoolAttr0 ( Int) Bool)
(declare-fun obj_fec696ab_1ad6_4a99_88c5_0f163ca440dc ( Int) Int)
(declare-fun Enum0 ( Int) Int)
(declare-fun Enum1 ( Int) Int)
(declare-fun Enum2 ( Int) Int)
(declare-fun container_ ( Int) Int)
(declare-fun oclIncludes ( Int Int) Bool)
(declare-fun ObjAt ( Int Int) Int)

;formula(s) generated
(assert (! (or (forall ((v Int)) (=> ( type_a4d0bfd9_92ad_4dd1_b530_6ff1023e49bd_Class15 v )  ( class15_Class15BoolAttr1 ( obj_fec696ab_1ad6_4a99_88c5_0f163ca440dc v )  ) )) (forall ((v Int)) (=> ( type_a4d0bfd9_92ad_4dd1_b530_6ff1023e49bd_Class15 v )  ( class15_Class15BoolAttr0 ( obj_fec696ab_1ad6_4a99_88c5_0f163ca440dc v )  ) ))):named l0))
(assert (exists ((o Int)) ( type_a4d0bfd9_92ad_4dd1_b530_6ff1023e49bd_Class15 ( obj_fec696ab_1ad6_4a99_88c5_0f163ca440dc o )  ) ))

 ;end of formula 